NAME : ftv64.1962.tour
COMMENT : Cost = 0_1962
COMMENT : Found by LKH [Keld Helsgaun] Fri Jan 13 17:16:53 2017
TYPE : TOUR
DIMENSION : 69
TOUR_SECTION
1
62
66
19
69
16
68
2
38
4
67
29
51
31
54
32
63
53
52
25
24
50
23
60
26
64
30
56
34
57
65
39
3
5
40
6
7
58
59
35
33
55
28
27
22
49
36
21
20
47
13
45
12
46
11
15
48
8
37
9
41
42
43
44
10
61
14
17
18
-1
EOF
